# Objective value = 4.9706199999999990e+03
I_0_0 1583
I_0_1 2003
I_0_2 1721
I_0_3 2206
I_1_0 158
I_1_1 79
I_1_2 1.5800000000000003e+02
I_1_3 7.9000000000000028e+01
I_2_0 172
I_2_1 86
I_2_2 1.7200000000000003e+02
I_2_3 8.6000000000000028e+01
I_3_0 87
I_3_1 0
I_3_2 87
I_3_3 0
I_4_0 69
I_4_1 0
I_4_2 69
I_4_3 0
I_5_0 86
I_5_1 43
I_5_2 8.6000000000000014e+01
I_5_3 4.3000000000000014e+01
I_6_0 77
I_6_1 77
I_6_2 77
I_6_3 0
I_7_0 84
I_7_1 42
I_7_2 8.3999999999999986e+01
I_7_3 4.1999999999999986e+01
I_8_0 126
I_8_1 126
I_8_2 63
I_8_3 0
I_9_0 75
I_9_1 75
I_9_2 0
I_9_3 75
I_10_0 14
I_10_1 0
I_10_2 14
I_10_3 0
q_1_0 0
q_1_1 158
q_1_2 0
q_2_0 0
q_2_1 172
q_2_2 0
q_3_0 0
q_3_1 174
q_3_2 0
q_4_0 0
q_4_1 138
q_4_2 0
q_5_0 0
q_5_1 86
q_5_2 0
q_6_0 77
q_6_1 77
q_6_2 0
q_7_0 0
q_7_1 84
q_7_2 0
q_8_0 63
q_8_1 0
q_8_2 0
q_9_0 75
q_9_1 0
q_9_2 150
q_10_0 0
q_10_1 28
q_10_2 0
y_0_0 1
y_0_1 1
y_0_2 1
y_1_0 0
y_1_1 1
y_1_2 0
y_2_0 0
y_2_1 1
y_2_2 0
y_3_0 0
y_3_1 1
y_3_2 0
y_4_0 0
y_4_1 1
y_4_2 0
y_5_0 0
y_5_1 1
y_5_2 0
y_6_0 1
y_6_1 1
y_6_2 0
y_7_0 0
y_7_1 1
y_7_2 0
y_8_0 1
y_8_1 0
y_8_2 0
y_9_0 1
y_9_1 0
y_9_2 1
y_10_0 0
y_10_1 1
y_10_2 0
x_0_1_0 0
x_0_1_1 0
x_0_1_2 0
x_0_2_0 0
x_0_2_1 0
x_0_2_2 0
x_0_3_0 0
x_0_3_1 0
x_0_3_2 0
x_0_4_0 0
x_0_4_1 0
x_0_4_2 0
x_0_5_0 0
x_0_5_1 0
x_0_5_2 0
x_0_6_0 1
x_0_6_1 1
x_0_6_2 0
x_0_7_0 0
x_0_7_1 1
x_0_7_2 0
x_0_8_0 0
x_0_8_1 0
x_0_8_2 0
x_0_9_0 1
x_0_9_1 0
x_0_9_2 2
x_0_10_0 0
x_0_10_1 0
x_0_10_2 0
x_1_2_0 0
x_1_2_1 1
x_1_2_2 0
x_1_3_0 0
x_1_3_1 0
x_1_3_2 0
x_1_4_0 0
x_1_4_1 1
x_1_4_2 0
x_1_5_0 0
x_1_5_1 0
x_1_5_2 0
x_1_6_0 0
x_1_6_1 0
x_1_6_2 0
x_1_7_0 0
x_1_7_1 0
x_1_7_2 0
x_1_8_0 0
x_1_8_1 0
x_1_8_2 0
x_1_9_0 0
x_1_9_1 0
x_1_9_2 0
x_1_10_0 0
x_1_10_1 0
x_1_10_2 0
x_2_3_0 0
x_2_3_1 1
x_2_3_2 0
x_2_4_0 0
x_2_4_1 0
x_2_4_2 0
x_2_5_0 0
x_2_5_1 0
x_2_5_2 0
x_2_6_0 0
x_2_6_1 0
x_2_6_2 0
x_2_7_0 0
x_2_7_1 0
x_2_7_2 0
x_2_8_0 0
x_2_8_1 0
x_2_8_2 0
x_2_9_0 0
x_2_9_1 0
x_2_9_2 0
x_2_10_0 0
x_2_10_1 0
x_2_10_2 0
x_3_4_0 0
x_3_4_1 0
x_3_4_2 0
x_3_5_0 0
x_3_5_1 0
x_3_5_2 0
x_3_6_0 0
x_3_6_1 0
x_3_6_2 0
x_3_7_0 0
x_3_7_1 0
x_3_7_2 0
x_3_8_0 0
x_3_8_1 0
x_3_8_2 0
x_3_9_0 0
x_3_9_1 0
x_3_9_2 0
x_3_10_0 0
x_3_10_1 1
x_3_10_2 0
x_4_5_0 0
x_4_5_1 1
x_4_5_2 0
x_4_6_0 0
x_4_6_1 0
x_4_6_2 0
x_4_7_0 0
x_4_7_1 0
x_4_7_2 0
x_4_8_0 0
x_4_8_1 0
x_4_8_2 0
x_4_9_0 0
x_4_9_1 0
x_4_9_2 0
x_4_10_0 0
x_4_10_1 0
x_4_10_2 0
x_5_6_0 0
x_5_6_1 0
x_5_6_2 0
x_5_7_0 0
x_5_7_1 1
x_5_7_2 0
x_5_8_0 0
x_5_8_1 0
x_5_8_2 0
x_5_9_0 0
x_5_9_1 0
x_5_9_2 0
x_5_10_0 0
x_5_10_1 0
x_5_10_2 0
x_6_7_0 0
x_6_7_1 0
x_6_7_2 0
x_6_8_0 1
x_6_8_1 0
x_6_8_2 0
x_6_9_0 0
x_6_9_1 0
x_6_9_2 0
x_6_10_0 0
x_6_10_1 1
x_6_10_2 0
x_7_8_0 0
x_7_8_1 0
x_7_8_2 0
x_7_9_0 0
x_7_9_1 0
x_7_9_2 0
x_7_10_0 0
x_7_10_1 0
x_7_10_2 0
x_8_9_0 1
x_8_9_1 0
x_8_9_2 0
x_8_10_0 0
x_8_10_1 0
x_8_10_2 0
x_9_10_0 0
x_9_10_1 0
x_9_10_2 0
